60
1 0 11
2 0 98
2 1 35
3 0 101
3 1 44
3 2 101
4 0 39
4 1 56
4 2 19
4 3 6
5 0 62
5 1 13
5 2 70
5 3 26
5 4 53
6 0 2
6 1 74
6 2 106
6 3 58
6 4 28
6 5 93
7 0 9
7 1 113
7 2 88
7 3 76
7 4 100
7 5 117
7 6 5
8 0 50
8 1 6
8 2 44
8 3 17
8 4 64
8 5 2
8 6 52
8 7 95
9 0 90
9 1 45
9 2 79
9 3 75
9 4 53
9 5 61
9 6 92
9 7 83
9 8 10
10 0 75
10 1 51
10 2 18
10 3 108
10 4 118
10 5 87
10 6 56
10 7 47
10 8 118
10 9 12
11 0 24
11 1 6
11 2 25
11 3 54
11 4 34
11 5 78
11 6 65
11 7 61
11 8 47
11 9 93
11 10 107
12 0 87
12 1 84
12 2 60
12 3 34
12 4 40
12 5 40
12 6 54
12 7 37
12 8 30
12 9 5
12 10 75
12 11 8
13 0 116
13 1 20
13 2 76
13 3 37
13 4 83
13 5 88
13 6 47
13 7 27
13 8 33
13 9 38
13 10 34
13 11 18
13 12 94
14 0 11
14 1 41
14 2 29
14 3 85
14 4 118
14 5 8
14 6 77
14 7 14
14 8 13
14 9 102
14 10 1
14 11 43
14 12 91
14 13 11
15 0 15
15 1 6
15 2 74
15 3 72
15 4 20
15 5 49
15 6 4
15 7 87
15 8 95
15 9 35
15 10 60
15 11 45
15 12 5
15 13 50
15 14 73
16 0 109
16 1 103
16 2 72
16 3 34
16 4 60
16 5 75
16 6 10
16 7 111
16 8 58
16 9 3
16 10 20
16 11 89
16 12 84
16 13 20
16 14 101
16 15 72
17 0 7
17 1 94
17 2 8
17 3 111
17 4 71
17 5 103
17 6 104
17 7 76
17 8 105
17 9 13
17 10 54
17 11 17
17 12 65
17 13 9
17 14 119
17 15 96
17 16 26
18 0 105
18 1 97
18 2 52
18 3 28
18 4 83
18 5 1
18 6 94
18 7 96
18 8 86
18 9 111
18 10 118
18 11 67
18 12 3
18 13 103
18 14 58
18 15 88
18 16 78
18 17 112
19 0 115
19 1 27
19 2 98
19 3 23
19 4 11
19 5 53
19 6 7
19 7 8
19 8 44
19 9 78
19 10 96
19 11 111
19 12 31
19 13 20
19 14 57
19 15 59
19 16 37
19 17 80
19 18 46
20 0 4
20 1 14
20 2 53
20 3 91
20 4 102
20 5 27
20 6 50
20 7 105
20 8 46
20 9 45
20 10 14
20 11 4
20 12 110
20 13 74
20 14 11
20 15 99
20 16 103
20 17 28
20 18 44
20 19 2
21 0 106
21 1 76
21 2 109
21 3 109
21 4 57
21 5 47
21 6 32
21 7 14
21 8 96
21 9 31
21 10 100
21 11 113
21 12 92
21 13 104
21 14 43
21 15 115
21 16 84
21 17 39
21 18 78
21 19 51
21 20 23
22 0 117
22 1 86
22 2 75
22 3 96
22 4 6
22 5 80
22 6 26
22 7 102
22 8 118
22 9 10
22 10 38
22 11 49
22 12 63
22 13 102
22 14 91
22 15 18
22 16 5
22 17 60
22 18 98
22 19 108
22 20 76
22 21 75
23 0 46
23 1 95
23 2 95
23 3 112
23 4 33
23 5 55
23 6 115
23 7 114
23 8 30
23 9 91
23 10 14
23 11 55
23 12 102
23 13 100
23 14 17
23 15 24
23 16 32
23 17 71
23 18 90
23 19 51
23 20 78
23 21 98
23 22 21
24 0 36
24 1 86
24 2 74
24 3 110
24 4 26
24 5 65
24 6 101
24 7 20
24 8 77
24 9 102
24 10 72
24 11 97
24 12 110
24 13 30
24 14 28
24 15 9
24 16 26
24 17 17
24 18 21
24 19 26
24 20 70
24 21 41
24 22 72
24 23 104
25 0 75
25 1 71
25 2 99
25 3 103
25 4 62
25 5 60
25 6 105
25 7 83
25 8 26
25 9 75
25 10 75
25 11 115
25 12 5
25 13 78
25 14 56
25 15 51
25 16 14
25 17 3
25 18 53
25 19 58
25 20 35
25 21 46
25 22 17
25 23 32
25 24 58
26 0 68
26 1 6
26 2 75
26 3 70
26 4 34
26 5 113
26 6 85
26 7 58
26 8 68
26 9 68
26 10 113
26 11 83
26 12 62
26 13 96
26 14 62
26 15 77
26 16 19
26 17 103
26 18 95
26 19 93
26 20 33
26 21 42
26 22 21
26 23 103
26 24 69
26 25 35
27 0 46
27 1 26
27 2 70
27 3 32
27 4 24
27 5 92
27 6 5
27 7 48
27 8 7
27 9 7
27 10 103
27 11 103
27 12 7
27 13 96
27 14 86
27 15 115
27 16 41
27 17 47
27 18 112
27 19 28
27 20 107
27 21 71
27 22 33
27 23 109
27 24 12
27 25 38
27 26 90
28 0 79
28 1 95
28 2 13
28 3 61
28 4 85
28 5 57
28 6 109
28 7 62
28 8 61
28 9 2
28 10 5
28 11 66
28 12 71
28 13 4
28 14 81
28 15 77
28 16 51
28 17 78
28 18 1
28 19 19
28 20 26
28 21 64
28 22 10
28 23 118
28 24 10
28 25 24
28 26 116
28 27 72
29 0 15
29 1 4
29 2 67
29 3 118
29 4 10
29 5 83
29 6 56
29 7 74
29 8 91
29 9 70
29 10 65
29 11 10
29 12 62
29 13 87
29 14 15
29 15 113
29 16 27
29 17 24
29 18 4
29 19 119
29 20 83
29 21 111
29 22 103
29 23 114
29 24 59
29 25 62
29 26 19
29 27 36
29 28 57
30 0 50
30 1 54
30 2 98
30 3 69
30 4 77
30 5 36
30 6 107
30 7 90
30 8 87
30 9 97
30 10 103
30 11 114
30 12 90
30 13 25
30 14 90
30 15 72
30 16 75
30 17 66
30 18 43
30 19 2
30 20 101
30 21 71
30 22 57
30 23 70
30 24 58
30 25 39
30 26 66
30 27 101
30 28 28
30 29 100
31 0 37
31 1 75
31 2 63
31 3 51
31 4 12
31 5 107
31 6 31
31 7 17
31 8 97
31 9 14
31 10 68
31 11 20
31 12 93
31 13 10
31 14 79
31 15 88
31 16 1
31 17 77
31 18 84
31 19 61
31 20 73
31 21 91
31 22 23
31 23 68
31 24 34
31 25 97
31 26 54
31 27 58
31 28 23
31 29 8
31 30 115
32 0 9
32 1 80
32 2 92
32 3 105
32 4 105
32 5 61
32 6 28
32 7 107
32 8 47
32 9 104
32 10 105
32 11 17
32 12 79
32 13 109
32 14 24
32 15 3
32 16 81
32 17 92
32 18 115
32 19 3
32 20 90
32 21 73
32 22 23
32 23 108
32 24 103
32 25 73
32 26 92
32 27 107
32 28 55
32 29 37
32 30 79
32 31 86
33 0 57
33 1 75
33 2 9
33 3 75
33 4 34
33 5 48
33 6 17
33 7 81
33 8 119
33 9 51
33 10 105
33 11 4
33 12 47
33 13 21
33 14 56
33 15 5
33 16 21
33 17 90
33 18 32
33 19 23
33 20 59
33 21 89
33 22 109
33 23 50
33 24 110
33 25 8
33 26 57
33 27 29
33 28 39
33 29 112
33 30 85
33 31 83
33 32 23
34 0 58
34 1 63
34 2 16
34 3 66
34 4 99
34 5 60
34 6 27
34 7 49
34 8 55
34 9 120
34 10 105
34 11 43
34 12 37
34 13 13
34 14 89
34 15 104
34 16 109
34 17 66
34 18 84
34 19 35
34 20 40
34 21 33
34 22 49
34 23 83
34 24 13
34 25 53
34 26 83
34 27 115
34 28 12
34 29 93
34 30 76
34 31 101
34 32 114
34 33 99
35 0 45
35 1 109
35 2 113
35 3 46
35 4 11
35 5 64
35 6 118
35 7 13
35 8 91
35 9 40
35 10 31
35 11 33
35 12 51
35 13 96
35 14 98
35 15 117
35 16 41
35 17 1
35 18 118
35 19 41
35 20 16
35 21 61
35 22 50
35 23 69
35 24 72
35 25 3
35 26 28
35 27 101
35 28 29
35 29 46
35 30 71
35 31 40
35 32 41
35 33 96
35 34 51
36 0 1
36 1 16
36 2 72
36 3 54
36 4 109
36 5 78
36 6 98
36 7 66
36 8 118
36 9 7
36 10 43
36 11 14
36 12 97
36 13 79
36 14 79
36 15 4
36 16 85
36 17 107
36 18 118
36 19 37
36 20 14
36 21 107
36 22 99
36 23 73
36 24 22
36 25 73
36 26 8
36 27 22
36 28 113
36 29 55
36 30 97
36 31 103
36 32 75
36 33 112
36 34 11
36 35 19
37 0 107
37 1 95
37 2 109
37 3 93
37 4 1
37 5 83
37 6 14
37 7 105
37 8 36
37 9 36
37 10 43
37 11 111
37 12 59
37 13 49
37 14 112
37 15 18
37 16 65
37 17 57
37 18 28
37 19 84
37 20 36
37 21 71
37 22 36
37 23 23
37 24 1
37 25 116
37 26 66
37 27 20
37 28 51
37 29 24
37 30 77
37 31 78
37 32 27
37 33 14
37 34 25
37 35 110
37 36 93
38 0 103
38 1 96
38 2 120
38 3 75
38 4 55
38 5 26
38 6 77
38 7 21
38 8 30
38 9 35
38 10 92
38 11 52
38 12 77
38 13 69
38 14 75
38 15 94
38 16 29
38 17 71
38 18 12
38 19 27
38 20 42
38 21 70
38 22 118
38 23 53
38 24 23
38 25 113
38 26 15
38 27 79
38 28 76
38 29 92
38 30 97
38 31 38
38 32 117
38 33 19
38 34 81
38 35 90
38 36 32
38 37 26
39 0 11
39 1 68
39 2 25
39 3 117
39 4 102
39 5 50
39 6 58
39 7 68
39 8 64
39 9 35
39 10 24
39 11 50
39 12 106
39 13 68
39 14 87
39 15 39
39 16 11
39 17 53
39 18 13
39 19 77
39 20 102
39 21 50
39 22 101
39 23 113
39 24 62
39 25 12
39 26 91
39 27 106
39 28 90
39 29 43
39 30 22
39 31 22
39 32 63
39 33 78
39 34 87
39 35 102
39 36 41
39 37 8
39 38 32
40 0 24
40 1 120
40 2 44
40 3 13
40 4 18
40 5 43
40 6 20
40 7 34
40 8 113
40 9 98
40 10 105
40 11 59
40 12 32
40 13 68
40 14 17
40 15 18
40 16 39
40 17 91
40 18 120
40 19 74
40 20 63
40 21 17
40 22 92
40 23 54
40 24 74
40 25 114
40 26 65
40 27 36
40 28 70
40 29 103
40 30 96
40 31 107
40 32 77
40 33 56
40 34 51
40 35 1
40 36 118
40 37 75
40 38 29
40 39 78
41 0 34
41 1 52
41 2 89
41 3 77
41 4 14
41 5 105
41 6 92
41 7 34
41 8 79
41 9 34
41 10 21
41 11 10
41 12 44
41 13 29
41 14 98
41 15 55
41 16 78
41 17 61
41 18 44
41 19 108
41 20 71
41 21 13
41 22 96
41 23 29
41 24 21
41 25 76
41 26 74
41 27 90
41 28 95
41 29 58
41 30 117
41 31 38
41 32 89
41 33 70
41 34 62
41 35 3
41 36 22
41 37 80
41 38 52
41 39 79
41 40 86
42 0 38
42 1 119
42 2 23
42 3 43
42 4 37
42 5 93
42 6 17
42 7 113
42 8 111
42 9 21
42 10 41
42 11 108
42 12 32
42 13 109
42 14 76
42 15 8
42 16 100
42 17 87
42 18 49
42 19 9
42 20 94
42 21 55
42 22 6
42 23 24
42 24 77
42 25 7
42 26 81
42 27 5
42 28 62
42 29 48
42 30 100
42 31 28
42 32 114
42 33 109
42 34 108
42 35 4
42 36 111
42 37 32
42 38 52
42 39 68
42 40 103
42 41 100
43 0 86
43 1 11
43 2 50
43 3 62
43 4 24
43 5 59
43 6 60
43 7 13
43 8 82
43 9 102
43 10 107
43 11 67
43 12 32
43 13 110
43 14 21
43 15 59
43 16 72
43 17 90
43 18 13
43 19 114
43 20 104
43 21 97
43 22 63
43 23 47
43 24 59
43 25 44
43 26 41
43 27 17
43 28 76
43 29 114
43 30 44
43 31 117
43 32 96
43 33 25
43 34 110
43 35 60
43 36 37
43 37 53
43 38 63
43 39 70
43 40 35
43 41 67
43 42 9
44 0 103
44 1 60
44 2 54
44 3 38
44 4 16
44 5 23
44 6 94
44 7 73
44 8 33
44 9 93
44 10 96
44 11 10
44 12 99
44 13 118
44 14 88
44 15 110
44 16 52
44 17 97
44 18 90
44 19 32
44 20 101
44 21 54
44 22 76
44 23 103
44 24 17
44 25 115
44 26 73
44 27 80
44 28 40
44 29 48
44 30 117
44 31 106
44 32 65
44 33 89
44 34 64
44 35 23
44 36 49
44 37 75
44 38 110
44 39 11
44 40 52
44 41 108
44 42 28
44 43 87
45 0 51
45 1 64
45 2 95
45 3 64
45 4 24
45 5 31
45 6 93
45 7 68
45 8 28
45 9 2
45 10 2
45 11 50
45 12 115
45 13 21
45 14 40
45 15 118
45 16 97
45 17 2
45 18 12
45 19 74
45 20 36
45 21 107
45 22 3
45 23 35
45 24 87
45 25 33
45 26 18
45 27 115
45 28 22
45 29 38
45 30 85
45 31 7
45 32 14
45 33 101
45 34 46
45 35 116
45 36 59
45 37 99
45 38 107
45 39 105
45 40 51
45 41 90
45 42 20
45 43 36
45 44 85
46 0 55
46 1 56
46 2 28
46 3 78
46 4 45
46 5 13
46 6 77
46 7 30
46 8 17
46 9 93
46 10 110
46 11 51
46 12 12
46 13 72
46 14 38
46 15 116
46 16 33
46 17 40
46 18 69
46 19 56
46 20 67
46 21 53
46 22 38
46 23 28
46 24 47
46 25 109
46 26 94
46 27 2
46 28 22
46 29 117
46 30 15
46 31 27
46 32 18
46 33 38
46 34 30
46 35 71
46 36 48
46 37 22
46 38 107
46 39 101
46 40 46
46 41 66
46 42 68
46 43 75
46 44 11
46 45 47
47 0 48
47 1 90
47 2 69
47 3 69
47 4 9
47 5 71
47 6 84
47 7 111
47 8 50
47 9 12
47 10 28
47 11 62
47 12 34
47 13 109
47 14 70
47 15 37
47 16 101
47 17 41
47 18 101
47 19 62
47 20 46
47 21 41
47 22 6
47 23 60
47 24 25
47 25 88
47 26 77
47 27 111
47 28 40
47 29 24
47 30 75
47 31 73
47 32 118
47 33 117
47 34 115
47 35 26
47 36 7
47 37 5
47 38 4
47 39 81
47 40 29
47 41 58
47 42 54
47 43 22
47 44 23
47 45 19
47 46 38
48 0 111
48 1 17
48 2 98
48 3 97
48 4 116
48 5 108
48 6 63
48 7 90
48 8 9
48 9 93
48 10 88
48 11 52
48 12 28
48 13 41
48 14 76
48 15 111
48 16 20
48 17 92
48 18 51
48 19 68
48 20 27
48 21 18
48 22 88
48 23 61
48 24 44
48 25 34
48 26 41
48 27 42
48 28 6
48 29 62
48 30 107
48 31 34
48 32 43
48 33 103
48 34 27
48 35 46
48 36 84
48 37 44
48 38 67
48 39 99
48 40 84
48 41 63
48 42 86
48 43 26
48 44 48
48 45 14
48 46 113
48 47 49
49 0 85
49 1 96
49 2 23
49 3 35
49 4 84
49 5 57
49 6 99
49 7 77
49 8 47
49 9 119
49 10 19
49 11 105
49 12 100
49 13 109
49 14 29
49 15 37
49 16 105
49 17 42
49 18 103
49 19 47
49 20 99
49 21 11
49 22 71
49 23 101
49 24 102
49 25 63
49 26 56
49 27 93
49 28 110
49 29 1
49 30 70
49 31 17
49 32 66
49 33 106
49 34 60
49 35 28
49 36 90
49 37 13
49 38 79
49 39 113
49 40 92
49 41 21
49 42 94
49 43 1
49 44 91
49 45 5
49 46 27
49 47 65
49 48 36
50 0 114
50 1 77
50 2 64
50 3 50
50 4 60
50 5 44
50 6 11
50 7 67
50 8 48
50 9 80
50 10 75
50 11 85
50 12 74
50 13 42
50 14 28
50 15 68
50 16 118
50 17 84
50 18 7
50 19 46
50 20 52
50 21 75
50 22 36
50 23 6
50 24 47
50 25 50
50 26 18
50 27 52
50 28 2
50 29 79
50 30 106
50 31 2
50 32 42
50 33 4
50 34 96
50 35 51
50 36 67
50 37 21
50 38 112
50 39 46
50 40 90
50 41 86
50 42 51
50 43 7
50 44 19
50 45 36
50 46 26
50 47 10
50 48 73
50 49 12
51 0 51
51 1 55
51 2 72
51 3 14
51 4 49
51 5 28
51 6 44
51 7 53
51 8 70
51 9 93
51 10 93
51 11 6
51 12 45
51 13 95
51 14 1
51 15 114
51 16 107
51 17 71
51 18 21
51 19 86
51 20 26
51 21 28
51 22 64
51 23 88
51 24 47
51 25 60
51 26 108
51 27 78
51 28 60
51 29 96
51 30 30
51 31 111
51 32 50
51 33 67
51 34 105
51 35 48
51 36 17
51 37 79
51 38 46
51 39 46
51 40 96
51 41 110
51 42 62
51 43 64
51 44 74
51 45 87
51 46 64
51 47 76
51 48 72
51 49 37
51 50 71
52 0 6
52 1 87
52 2 43
52 3 58
52 4 46
52 5 84
52 6 87
52 7 67
52 8 81
52 9 87
52 10 83
52 11 94
52 12 22
52 13 108
52 14 109
52 15 11
52 16 64
52 17 2
52 18 111
52 19 87
52 20 94
52 21 118
52 22 13
52 23 10
52 24 91
52 25 20
52 26 18
52 27 18
52 28 72
52 29 28
52 30 73
52 31 99
52 32 56
52 33 64
52 34 21
52 35 60
52 36 96
52 37 104
52 38 61
52 39 86
52 40 73
52 41 25
52 42 111
52 43 100
52 44 72
52 45 116
52 46 34
52 47 4
52 48 32
52 49 64
52 50 94
52 51 6
53 0 16
53 1 45
53 2 74
53 3 44
53 4 95
53 5 113
53 6 64
53 7 4
53 8 62
53 9 2
53 10 119
53 11 6
53 12 48
53 13 53
53 14 30
53 15 12
53 16 65
53 17 23
53 18 72
53 19 23
53 20 69
53 21 40
53 22 90
53 23 29
53 24 63
53 25 39
53 26 108
53 27 103
53 28 114
53 29 75
53 30 7
53 31 94
53 32 89
53 33 80
53 34 75
53 35 90
53 36 4
53 37 76
53 38 47
53 39 92
53 40 14
53 41 59
53 42 45
53 43 118
53 44 43
53 45 42
53 46 17
53 47 91
53 48 53
53 49 17
53 50 73
53 51 60
53 52 58
54 0 114
54 1 49
54 2 54
54 3 97
54 4 85
54 5 42
54 6 59
54 7 55
54 8 5
54 9 65
54 10 70
54 11 83
54 12 55
54 13 22
54 14 56
54 15 14
54 16 15
54 17 22
54 18 87
54 19 14
54 20 111
54 21 118
54 22 42
54 23 94
54 24 87
54 25 42
54 26 44
54 27 63
54 28 94
54 29 116
54 30 25
54 31 110
54 32 97
54 33 7
54 34 104
54 35 90
54 36 34
54 37 57
54 38 2
54 39 8
54 40 95
54 41 108
54 42 81
54 43 85
54 44 74
54 45 7
54 46 3
54 47 98
54 48 103
54 49 25
54 50 59
54 51 13
54 52 89
54 53 31
55 0 28
55 1 3
55 2 114
55 3 23
55 4 76
55 5 112
55 6 16
55 7 93
55 8 46
55 9 9
55 10 111
55 11 77
55 12 40
55 13 117
55 14 6
55 15 36
55 16 15
55 17 46
55 18 59
55 19 71
55 20 39
55 21 9
55 22 83
55 23 80
55 24 77
55 25 114
55 26 35
55 27 66
55 28 30
55 29 57
55 30 106
55 31 93
55 32 60
55 33 21
55 34 89
55 35 88
55 36 54
55 37 99
55 38 77
55 39 89
55 40 117
55 41 75
55 42 2
55 43 100
55 44 60
55 45 39
55 46 32
55 47 109
55 48 57
55 49 28
55 50 98
55 51 91
55 52 22
55 53 64
55 54 42
56 0 119
56 1 71
56 2 38
56 3 32
56 4 114
56 5 26
56 6 33
56 7 29
56 8 15
56 9 27
56 10 2
56 11 70
56 12 82
56 13 41
56 14 33
56 15 62
56 16 12
56 17 25
56 18 82
56 19 110
56 20 111
56 21 27
56 22 99
56 23 98
56 24 47
56 25 16
56 26 70
56 27 108
56 28 18
56 29 89
56 30 25
56 31 88
56 32 56
56 33 81
56 34 64
56 35 51
56 36 86
56 37 2
56 38 23
56 39 10
56 40 102
56 41 7
56 42 111
56 43 12
56 44 36
56 45 103
56 46 21
56 47 26
56 48 55
56 49 3
56 50 78
56 51 112
56 52 88
56 53 1
56 54 63
56 55 81
57 0 85
57 1 115
57 2 53
57 3 86
57 4 1
57 5 85
57 6 61
57 7 110
57 8 107
57 9 70
57 10 2
57 11 74
57 12 79
57 13 12
57 14 47
57 15 50
57 16 40
57 17 81
57 18 91
57 19 57
57 20 34
57 21 117
57 22 20
57 23 92
57 24 94
57 25 57
57 26 19
57 27 37
57 28 61
57 29 44
57 30 54
57 31 30
57 32 76
57 33 4
57 34 89
57 35 63
57 36 118
57 37 51
57 38 3
57 39 33
57 40 41
57 41 36
57 42 101
57 43 40
57 44 113
57 45 19
57 46 56
57 47 49
57 48 83
57 49 19
57 50 94
57 51 106
57 52 87
57 53 61
57 54 61
57 55 30
57 56 29
58 0 13
58 1 115
58 2 73
58 3 100
58 4 33
58 5 58
58 6 99
58 7 76
58 8 5
58 9 37
58 10 28
58 11 7
58 12 34
58 13 50
58 14 110
58 15 10
58 16 66
58 17 81
58 18 5
58 19 6
58 20 64
58 21 38
58 22 98
58 23 87
58 24 46
58 25 69
58 26 101
58 27 114
58 28 62
58 29 2
58 30 18
58 31 18
58 32 48
58 33 102
58 34 13
58 35 66
58 36 62
58 37 32
58 38 118
58 39 93
58 40 81
58 41 84
58 42 101
58 43 51
58 44 13
58 45 45
58 46 7
58 47 52
58 48 21
58 49 79
58 50 82
58 51 78
58 52 71
58 53 8
58 54 45
58 55 92
58 56 58
58 57 110
59 0 80
59 1 60
59 2 84
59 3 115
59 4 93
59 5 102
59 6 18
59 7 65
59 8 26
59 9 76
59 10 19
59 11 16
59 12 114
59 13 80
59 14 9
59 15 16
59 16 99
59 17 47
59 18 69
59 19 56
59 20 57
59 21 89
59 22 63
59 23 39
59 24 1
59 25 62
59 26 21
59 27 118
59 28 24
59 29 76
59 30 24
59 31 84
59 32 103
59 33 115
59 34 98
59 35 113
59 36 83
59 37 77
59 38 106
59 39 75
59 40 106
59 41 17
59 42 109
59 43 120
59 44 9
59 45 38
59 46 24
59 47 51
59 48 67
59 49 40
59 50 77
59 51 11
59 52 103
59 53 28
59 54 108
59 55 61
59 56 1
59 57 53
59 58 117
